letting np_cars_plus be 88
letting np_classes be 83
letting np_options be 49
letting quantity_range_min be 2
letting quantity_range_delta be 24
letting maxcars_range_min be 5
letting maxcars_range_delta be 7
letting blksize_delta_range_min be 1
letting blksize_delta_range_delta be 0
letting usage_card_min be 442
letting usage_card_delta be 50